; PUSH cw_5 PUSH cw_4 DUP3 DUP3 DUP3 SWAP1 => PUSH cw_5 PUSH cw_4 DUP3 PUSH cw_4 PUSH cw_5
(set-option :produce-proofs true)
; 
(set-info :status unknown)
(declare-fun storage_t ((_ BitVec 256) (_ BitVec 256) (_ BitVec 256) Int (_ BitVec 256)) (_ BitVec 256))
(declare-fun w_4 () (_ BitVec 256))
(declare-fun w_5 () (_ BitVec 256))
(declare-fun storage_s ((_ BitVec 256) (_ BitVec 256) (_ BitVec 256) Int (_ BitVec 256)) (_ BitVec 256))
(declare-fun exc_halt_t (Int) Bool)
(declare-fun exc_halt_s (Int) Bool)
(declare-fun stack_t ((_ BitVec 256) (_ BitVec 256) (_ BitVec 256) Int (_ BitVec 6)) (_ BitVec 256))
(declare-fun stack_s ((_ BitVec 256) (_ BitVec 256) (_ BitVec 256) Int (_ BitVec 6)) (_ BitVec 256))
(declare-fun sc_t (Int) (_ BitVec 6))
(declare-fun sc_s (Int) (_ BitVec 6))
(declare-fun used_gas_t ((_ BitVec 256) (_ BitVec 256) (_ BitVec 256) Int) Int)
(declare-fun used_gas_s ((_ BitVec 256) (_ BitVec 256) (_ BitVec 256) Int) Int)
(assert
 (exists ((x_0 (_ BitVec 256)) )(let (($x11020 (forall ((w (_ BitVec 256)) )(let ((?x8736 (storage_t x_0 w_5 w_4 5 w)))
 (let ((?x2057 (storage_s x_0 w_5 w_4 6 w)))
 (= ?x2057 ?x8736))))
 ))
 (let (($x886 (exc_halt_t 5)))
 (let (($x772 (exc_halt_s 6)))
 (let (($x889 (= $x772 $x886)))
 (let (($x6644 (forall ((n (_ BitVec 6)) )(let ((?x5694 (stack_t x_0 w_5 w_4 5 n)))
 (let ((?x2187 (stack_s x_0 w_5 w_4 6 n)))
 (let (($x10525 (= ?x2187 ?x5694)))
 (let ((?x919 (sc_t 5)))
 (let (($x6942 (bvsle ?x919 n)))
 (or $x6942 $x10525)))))))
 ))
 (let ((?x919 (sc_t 5)))
 (let ((?x926 (sc_s 6)))
 (let (($x929 (= ?x926 ?x919)))
 (let ((?x7836 (used_gas_t x_0 w_5 w_4 0)))
 (let ((?x5357 (used_gas_s x_0 w_5 w_4 0)))
 (let (($x5253 (= ?x5357 ?x7836)))
 (let (($x2504 (forall ((w (_ BitVec 256)) )(let ((?x4004 (storage_t x_0 w_5 w_4 0 w)))
 (let ((?x10136 (storage_s x_0 w_5 w_4 0 w)))
 (= ?x10136 ?x4004))))
 ))
 (let (($x56 (exc_halt_t 0)))
 (let (($x57 (exc_halt_s 0)))
 (let (($x58 (= $x57 $x56)))
 (let (($x8221 (forall ((n (_ BitVec 6)) )(let ((?x63 (sc_t 0)))
 (let (($x7453 (bvsle ?x63 n)))
 (let ((?x6910 (stack_t x_0 w_5 w_4 0 n)))
 (let ((?x5936 (stack_s x_0 w_5 w_4 0 n)))
 (let (($x2990 (= ?x5936 ?x6910)))
 (or $x2990 $x7453)))))))
 ))
 (let ((?x63 (sc_t 0)))
 (let ((?x72 (sc_s 0)))
 (let (($x73 (= ?x72 ?x63)))
 (let (($x3723 (exc_halt_t 4)))
 (let (($x11390 (or $x3723 (not (= ((_ extract 6 6) (bvadd (_ bv1 7) (concat (_ bv0 1) (sc_t 4)))) (_ bv0 1))))))
 (let (($x7328 (forall ((w (_ BitVec 256)) )(let ((?x6172 (storage_t x_0 w_5 w_4 4 w)))
 (let ((?x8736 (storage_t x_0 w_5 w_4 5 w)))
 (= ?x8736 ?x6172))))
 ))
 (let (($x10268 (forall ((n (_ BitVec 6)) )(let ((?x11361 (stack_t x_0 w_5 w_4 4 n)))
 (let ((?x5694 (stack_t x_0 w_5 w_4 5 n)))
 (let ((?x1098 (sc_t 4)))
 (let (($x8721 (bvsle ?x1098 n)))
 (or $x8721 (= ?x5694 ?x11361)))))))
 ))
 (let (($x1659 (= (used_gas_t x_0 w_5 w_4 5) (+ 3 (used_gas_t x_0 w_5 w_4 4)))))
 (let (($x2704 (not (= ((_ extract 6 6) (bvadd (_ bv1 7) (concat (_ bv0 1) (sc_t 3)))) (_ bv0 1)))))
 (let (($x6783 (exc_halt_t 3)))
 (let (($x3496 (= $x3723 (or $x6783 $x2704))))
 (let (($x5595 (forall ((w (_ BitVec 256)) )(let ((?x4844 (storage_t x_0 w_5 w_4 3 w)))
 (let ((?x6172 (storage_t x_0 w_5 w_4 4 w)))
 (= ?x6172 ?x4844))))
 ))
 (let (($x4463 (forall ((n (_ BitVec 6)) )(let ((?x10173 (stack_t x_0 w_5 w_4 3 n)))
 (let ((?x11361 (stack_t x_0 w_5 w_4 4 n)))
 (let ((?x6438 (sc_t 3)))
 (let (($x5094 (bvsle ?x6438 n)))
 (or $x5094 (= ?x11361 ?x10173)))))))
 ))
 (let ((?x1098 (sc_t 4)))
 (let (($x5367 (= ?x1098 (bvadd (_ bv1 6) (sc_t 3)))))
 (let ((?x6240 (used_gas_t x_0 w_5 w_4 4)))
 (let (($x8259 (not (= ((_ extract 6 6) (bvadd (_ bv1 7) (concat (_ bv0 1) (sc_t 2)))) (_ bv0 1)))))
 (let (($x5498 (not (bvsle (_ bv0 6) (bvadd (_ bv61 6) (sc_t 2))))))
 (let (($x5252 (exc_halt_t 2)))
 (let (($x7236 (forall ((w (_ BitVec 256)) )(let ((?x5255 (storage_t x_0 w_5 w_4 2 w)))
 (let ((?x4844 (storage_t x_0 w_5 w_4 3 w)))
 (= ?x4844 ?x5255))))
 ))
 (let (($x8840 (forall ((n (_ BitVec 6)) )(let ((?x2714 (sc_t 2)))
 (let ((?x8432 (bvadd (_ bv61 6) ?x2714)))
 (let (($x9529 (bvsle ?x8432 n)))
 (let ((?x8079 (stack_t x_0 w_5 w_4 2 n)))
 (let ((?x10173 (stack_t x_0 w_5 w_4 3 n)))
 (or (= ?x10173 ?x8079) $x9529)))))))
 ))
 (let ((?x6438 (sc_t 3)))
 (let (($x8645 (= ?x6438 (bvadd (_ bv1 6) (sc_t 2)))))
 (let ((?x1117 (used_gas_t x_0 w_5 w_4 3)))
 (let (($x7817 (= (stack_t x_0 w_5 w_4 3 (bvadd (_ bv63 6) (sc_t 2))) (stack_t x_0 w_5 w_4 2 (bvadd (_ bv63 6) (sc_t 2))))))
 (let (($x10114 (= (stack_t x_0 w_5 w_4 3 (bvadd (_ bv62 6) (sc_t 2))) (stack_t x_0 w_5 w_4 2 (bvadd (_ bv62 6) (sc_t 2))))))
 (let ((?x2714 (sc_t 2)))
 (let ((?x8432 (bvadd (_ bv61 6) ?x2714)))
 (let ((?x6578 (stack_t x_0 w_5 w_4 2 ?x8432)))
 (let (($x1340 (not (= ((_ extract 6 6) (bvadd (_ bv1 7) (concat (_ bv0 1) (sc_t 1)))) (_ bv0 1)))))
 (let (($x3508 (exc_halt_t 1)))
 (let (($x7865 (= $x5252 (or $x3508 $x1340))))
 (let (($x9560 (forall ((w (_ BitVec 256)) )(let ((?x2589 (storage_t x_0 w_5 w_4 1 w)))
 (let ((?x5255 (storage_t x_0 w_5 w_4 2 w)))
 (= ?x5255 ?x2589))))
 ))
 (let (($x6627 (forall ((n (_ BitVec 6)) )(let ((?x8347 (sc_t 1)))
 (let (($x10184 (bvsle ?x8347 n)))
 (let ((?x6981 (stack_t x_0 w_5 w_4 1 n)))
 (let ((?x8079 (stack_t x_0 w_5 w_4 2 n)))
 (or (= ?x8079 ?x6981) $x10184))))))
 ))
 (let (($x2756 (= ?x2714 (bvadd (_ bv1 6) (sc_t 1)))))
 (let ((?x4535 (used_gas_t x_0 w_5 w_4 2)))
 (let (($x9130 (= $x3508 (or $x56 (not (= ((_ extract 6 6) (bvadd (_ bv1 7) (concat (_ bv0 1) ?x63))) (_ bv0 1)))))))
 (let (($x3000 (forall ((w (_ BitVec 256)) )(let ((?x4004 (storage_t x_0 w_5 w_4 0 w)))
 (let ((?x2589 (storage_t x_0 w_5 w_4 1 w)))
 (= ?x2589 ?x4004))))
 ))
 (let (($x10088 (forall ((n (_ BitVec 6)) )(let ((?x6910 (stack_t x_0 w_5 w_4 0 n)))
 (let ((?x6981 (stack_t x_0 w_5 w_4 1 n)))
 (let ((?x63 (sc_t 0)))
 (let (($x7453 (bvsle ?x63 n)))
 (or $x7453 (= ?x6981 ?x6910)))))))
 ))
 (let ((?x8347 (sc_t 1)))
 (let (($x6213 (= ?x8347 (bvadd (_ bv1 6) ?x63))))
 (let (($x10655 (= $x772 (or (exc_halt_s 5) (not (bvsle (_ bv0 6) (bvadd (_ bv62 6) (sc_s 5))))))))
 (let (($x8448 (forall ((w (_ BitVec 256)) )(let ((?x1164 (storage_s x_0 w_5 w_4 5 w)))
 (let ((?x2057 (storage_s x_0 w_5 w_4 6 w)))
 (= ?x2057 ?x1164))))
 ))
 (let (($x6672 (forall ((n (_ BitVec 6)) )(let ((?x4319 (sc_s 5)))
 (let ((?x8322 (bvadd (_ bv62 6) ?x4319)))
 (let (($x4228 (bvsle ?x8322 n)))
 (let ((?x7256 (stack_s x_0 w_5 w_4 5 n)))
 (let ((?x2187 (stack_s x_0 w_5 w_4 6 n)))
 (or (= ?x2187 ?x7256) $x4228)))))))
 ))
 (let ((?x4319 (sc_s 5)))
 (let (($x1737 (= ?x926 ?x4319)))
 (let (($x9571 (= (used_gas_s x_0 w_5 w_4 6) (+ 3 (used_gas_s x_0 w_5 w_4 5)))))
 (let ((?x3503 (bvadd (_ bv63 6) ?x4319)))
 (let ((?x8041 (stack_s x_0 w_5 w_4 5 ?x3503)))
 (let (($x7496 (= (stack_s x_0 w_5 w_4 6 (bvadd (_ bv63 6) ?x926)) (stack_s x_0 w_5 w_4 5 (bvadd (_ bv62 6) ?x4319)))))
 (let (($x7172 (exc_halt_s 4)))
 (let (($x6027 (not (bvsle (_ bv0 6) (bvadd (_ bv61 6) (sc_s 4))))))
 (let (($x2077 (not (= ((_ extract 6 6) (bvadd (_ bv1 7) (concat (_ bv0 1) (sc_s 4)))) (_ bv0 1)))))
 (let (($x11317 (exc_halt_s 5)))
 (let (($x6498 (forall ((w (_ BitVec 256)) )(let ((?x1998 (storage_s x_0 w_5 w_4 4 w)))
 (let ((?x1164 (storage_s x_0 w_5 w_4 5 w)))
 (= ?x1164 ?x1998))))
 ))
 (let (($x7077 (forall ((n (_ BitVec 6)) )(let ((?x4305 (sc_s 4)))
 (let ((?x9936 (bvadd (_ bv61 6) ?x4305)))
 (let (($x10105 (bvsle ?x9936 n)))
 (let ((?x8370 (stack_s x_0 w_5 w_4 4 n)))
 (let ((?x7256 (stack_s x_0 w_5 w_4 5 n)))
 (or (= ?x7256 ?x8370) $x10105)))))))
 ))
 (let (($x6568 (= ?x4319 (bvadd (_ bv1 6) (sc_s 4)))))
 (let ((?x2669 (used_gas_s x_0 w_5 w_4 5)))
 (let ((?x4305 (sc_s 4)))
 (let ((?x805 (bvadd (_ bv63 6) ?x4305)))
 (let ((?x6935 (stack_s x_0 w_5 w_4 4 ?x805)))
 (let (($x1768 (= (stack_s x_0 w_5 w_4 5 (bvadd (_ bv62 6) ?x4305)) (stack_s x_0 w_5 w_4 4 (bvadd (_ bv62 6) ?x4305)))))
 (let ((?x9936 (bvadd (_ bv61 6) ?x4305)))
 (let ((?x7682 (stack_s x_0 w_5 w_4 4 ?x9936)))
 (let (($x4383 (not (= ((_ extract 6 6) (bvadd (_ bv1 7) (concat (_ bv0 1) (sc_s 3)))) (_ bv0 1)))))
 (let (($x292 (exc_halt_s 3)))
 (let (($x426 (= $x7172 (or $x292 (not (bvsle (_ bv0 6) (bvadd (_ bv61 6) (sc_s 3)))) $x4383))))
 (let (($x3659 (forall ((w (_ BitVec 256)) )(let ((?x468 (storage_s x_0 w_5 w_4 3 w)))
 (let ((?x1998 (storage_s x_0 w_5 w_4 4 w)))
 (= ?x1998 ?x468))))
 ))
 (let (($x3639 (forall ((n (_ BitVec 6)) )(let ((?x275 (sc_s 3)))
 (let ((?x3143 (bvadd (_ bv61 6) ?x275)))
 (let (($x9678 (bvsle ?x3143 n)))
 (let ((?x8222 (stack_s x_0 w_5 w_4 3 n)))
 (let ((?x8370 (stack_s x_0 w_5 w_4 4 n)))
 (or (= ?x8370 ?x8222) $x9678)))))))
 ))
 (let (($x11555 (= ?x4305 (bvadd (_ bv1 6) (sc_s 3)))))
 (let ((?x11309 (used_gas_s x_0 w_5 w_4 4)))
 (let ((?x275 (sc_s 3)))
 (let ((?x9812 (bvadd (_ bv63 6) ?x275)))
 (let ((?x11303 (stack_s x_0 w_5 w_4 3 ?x9812)))
 (let (($x9640 (= (stack_s x_0 w_5 w_4 4 (bvadd (_ bv62 6) ?x275)) (stack_s x_0 w_5 w_4 3 (bvadd (_ bv62 6) ?x275)))))
 (let ((?x3143 (bvadd (_ bv61 6) ?x275)))
 (let ((?x186 (stack_s x_0 w_5 w_4 3 ?x3143)))
 (let (($x1395 (not (= ((_ extract 6 6) (bvadd (_ bv1 7) (concat (_ bv0 1) (sc_s 2)))) (_ bv0 1)))))
 (let (($x247 (exc_halt_s 2)))
 (let (($x10614 (forall ((w (_ BitVec 256)) )(let ((?x11146 (storage_s x_0 w_5 w_4 2 w)))
 (let ((?x468 (storage_s x_0 w_5 w_4 3 w)))
 (= ?x468 ?x11146))))
 ))
 (let (($x7952 (forall ((n (_ BitVec 6)) )(let ((?x7139 (stack_s x_0 w_5 w_4 2 n)))
 (let ((?x8222 (stack_s x_0 w_5 w_4 3 n)))
 (or (bvsle (bvadd (_ bv61 6) (sc_s 2)) n) (= ?x8222 ?x7139)))))
 ))
 (let (($x4795 (= ?x275 (bvadd (_ bv1 6) (sc_s 2)))))
 (let ((?x9697 (used_gas_s x_0 w_5 w_4 3)))
 (let (($x10470 (= (stack_s x_0 w_5 w_4 3 (bvadd (_ bv63 6) (sc_s 2))) (stack_s x_0 w_5 w_4 2 (bvadd (_ bv63 6) (sc_s 2))))))
 (let (($x4999 (= (stack_s x_0 w_5 w_4 3 (bvadd (_ bv62 6) (sc_s 2))) (stack_s x_0 w_5 w_4 2 (bvadd (_ bv62 6) (sc_s 2))))))
 (let ((?x218 (sc_s 2)))
 (let ((?x4435 (bvadd (_ bv61 6) ?x218)))
 (let ((?x10280 (stack_s x_0 w_5 w_4 2 ?x4435)))
 (let (($x8154 (not (= ((_ extract 6 6) (bvadd (_ bv1 7) (concat (_ bv0 1) (sc_s 1)))) (_ bv0 1)))))
 (let (($x189 (exc_halt_s 1)))
 (let (($x961 (= $x247 (or $x189 $x8154))))
 (let (($x6504 (forall ((w (_ BitVec 256)) )(let ((?x10375 (storage_s x_0 w_5 w_4 1 w)))
 (let ((?x11146 (storage_s x_0 w_5 w_4 2 w)))
 (= ?x11146 ?x10375))))
 ))
 (let (($x1857 (forall ((n (_ BitVec 6)) )(let ((?x9270 (stack_s x_0 w_5 w_4 1 n)))
 (let ((?x7139 (stack_s x_0 w_5 w_4 2 n)))
 (let ((?x154 (sc_s 1)))
 (let (($x1556 (bvsle ?x154 n)))
 (or $x1556 (= ?x7139 ?x9270)))))))
 ))
 (let (($x1362 (= ?x218 (bvadd (_ bv1 6) (sc_s 1)))))
 (let ((?x10670 (used_gas_s x_0 w_5 w_4 2)))
 (let (($x2013 (= $x189 (or $x57 (not (= ((_ extract 6 6) (bvadd (_ bv1 7) (concat (_ bv0 1) ?x72))) (_ bv0 1)))))))
 (let (($x4762 (forall ((w (_ BitVec 256)) )(let ((?x10136 (storage_s x_0 w_5 w_4 0 w)))
 (let ((?x10375 (storage_s x_0 w_5 w_4 1 w)))
 (= ?x10375 ?x10136))))
 ))
 (let (($x3715 (forall ((n (_ BitVec 6)) )(let ((?x5936 (stack_s x_0 w_5 w_4 0 n)))
 (let ((?x9270 (stack_s x_0 w_5 w_4 1 n)))
 (or (bvsle (sc_s 0) n) (= ?x9270 ?x5936)))))
 ))
 (let ((?x154 (sc_s 1)))
 (let (($x11639 (= ?x154 (bvadd (_ bv1 6) ?x72))))
 (let (($x3699 (forall ((w (_ BitVec 256)) )(let ((?x10136 (storage_s x_0 w_5 w_4 0 w)))
 (= ?x10136 (_ bv0 256))))
 ))
 (let (($x11331 (= ?x5357 0)))
 (let (($x6901 (not $x57)))
 (let (($x480 (= (stack_s x_0 w_5 w_4 0 (_ bv0 6)) x_0)))
 (let (($x8685 (= ?x72 (_ bv1 6))))
 (and $x8685 $x480 $x6901 $x11331 $x3699 (= (stack_s x_0 w_5 w_4 1 ?x72) w_5) (= (used_gas_s x_0 w_5 w_4 1) (+ 3 ?x5357)) $x11639 $x3715 $x4762 $x2013 (= (stack_s x_0 w_5 w_4 2 ?x154) w_4) (= ?x10670 (+ 3 (used_gas_s x_0 w_5 w_4 1))) $x1362 $x1857 $x6504 $x961 (= ?x11303 ?x10280) (= (stack_s x_0 w_5 w_4 3 ?x4435) ?x10280) $x4999 $x10470 (= ?x9697 (+ 3 ?x10670)) $x4795 $x7952 $x10614 (= $x292 (or $x247 $x1395 (not (bvsle (_ bv0 6) ?x4435)))) (= ?x6935 ?x186) (= (stack_s x_0 w_5 w_4 4 ?x3143) ?x186) $x9640 (= (stack_s x_0 w_5 w_4 4 ?x9812) ?x11303) (= ?x11309 (+ 3 ?x9697)) $x11555 $x3639 $x3659 $x426 (= ?x8041 ?x7682) (= (stack_s x_0 w_5 w_4 5 ?x9936) ?x7682) $x1768 (= (stack_s x_0 w_5 w_4 5 ?x805) ?x6935) (= ?x2669 (+ 3 ?x11309)) $x6568 $x7077 $x6498 (= $x11317 (or $x2077 $x6027 $x7172)) $x7496 (= (stack_s x_0 w_5 w_4 6 (bvadd (_ bv62 6) ?x926)) ?x8041) $x9571 $x1737 $x6672 $x8448 $x10655 (= (stack_t x_0 w_5 w_4 1 ?x63) w_5) (= (used_gas_t x_0 w_5 w_4 1) (+ 3 ?x7836)) $x6213 $x10088 $x3000 $x9130 (= (stack_t x_0 w_5 w_4 2 ?x8347) w_4) (= ?x4535 (+ 3 (used_gas_t x_0 w_5 w_4 1))) $x2756 $x6627 $x9560 $x7865 (= (stack_t x_0 w_5 w_4 3 (bvadd (_ bv63 6) ?x6438)) ?x6578) (= (stack_t x_0 w_5 w_4 3 ?x8432) ?x6578) $x10114 $x7817 (= ?x1117 (+ 3 ?x4535)) $x8645 $x8840 $x7236 (= $x6783 (or $x5252 $x5498 $x8259)) (= (stack_t x_0 w_5 w_4 4 ?x6438) w_4) (= ?x6240 (+ 3 ?x1117)) $x5367 $x4463 $x5595 $x3496 (= (stack_t x_0 w_5 w_4 5 ?x1098) w_5) $x1659 (= ?x919 (bvadd (_ bv1 6) ?x1098)) $x10268 $x7328 (= $x886 $x11390) $x73 $x8221 $x58 $x2504 $x5253 (not (and $x929 $x6644 $x889 $x11020)))))))))))))))))))))))))))))))))))))))))))))))))))))))))))))))))))))))))))))))))))))))))))))))))))))))))))))))))))))))))))))
 )
(check-sat)
(get-proof)
